10 5 1
5    1  1 72    1  0 87    1  4 95    1  2 66    1  3 60
5    1  4 5    1  3 35    1  0 48    1  2 39    1  1 54
5    1  1 46    1  3 20    1  2 21    1  0 97    1  4 55
5    1  0 59    1  3 19    1  4 46    1  1 34    1  2 37
5    1  4 23    1  2 73    1  3 25    1  1 24    1  0 28
5    1  3 28    1  0 45    1  4 5    1  1 78    1  2 83
5    1  0 53    1  3 71    1  1 37    1  4 29    1  2 12
5    1  4 12    1  2 87    1  3 33    1  1 55    1  0 38
5    1  2 49    1  3 83    1  1 40    1  0 48    1  4 7
5    1  2 65    1  3 17    1  0 90    1  4 27    1  1 23
